nK = 2838;
nT = 8;
nI = 21;
L = 29;
TT = 576;
np = 1;
nc = 3;
b = [43, 55, 56, 67, 48, 41, 48, 55, 25, 65, 33, 41, 61, 54, 35, 49, 59, 34, 41, 67, 33];
d = [74, 119, 110, 106, 110, 101, 114, 142, 146, 103, 56, 69, 148, 93, 150, 104, 94, 133, 112, 123, 118];
m = [1.3, 2.4, 1.7, 1.2, 2.1, 2.5, 1.5, 1.2, 1.9, 2, 2.2, 1.4, 1.8, 1.2, 2.2, 1.1, 1.9, 1.8, 1.4, 1.4, 1.8];
pt = [0.28, 0.29, 0.31, 0.3, 0.2, 0.24, 0.32, 0.2];
st = [13.44, 11.6, 13.95, 16.2, 11, 10.8, 19.2, 8.4];
arc = {<1, 0, 1, 1, 0, 0, 0, [1, 1, 1, 1, 1, 1, 1, 1]>, <2, 1, 2, 1, 0, 0, 0, [1, 1, 1, 1, 1, 1, 1, 1]>, <3, 2, 3, 1, 0, 0, 0, [1, 1, 1, 1, 1, 1, 1, 1]>, <4, 3, 4, 1, 0, 0, 0, [1, 1, 1, 1, 1, 1, 1, 1]>, <5, 4, 5, 1, 0, 0, 0, [1, 1, 1, 1, 1, 1, 1, 1]>, <6, 5, 6, 1, 0, 0, 0, [1, 1, 1, 1, 1, 1, 1, 1]>, <7, 6, 7, 1, 0, 0, 0, [1, 1, 1, 1, 1, 1, 1, 1]>, <8, 7, 8, 1, 0, 0, 0, [1, 1, 1, 1, 1, 1, 1, 1]>, <9, 8, 9, 1, 0, 0, 0, [1, 1, 1, 1, 1, 1, 1, 1]>, <10, 9, 10, 1, 0, 0, 0, [1, 1, 1, 1, 1, 1, 1, 1]>, <11, 10, 11, 1, 0, 0, 0, [1, 1, 1, 1, 1, 1, 1, 1]>, <12, 11, 12, 1, 0, 0, 0, [1, 1, 1, 1, 1, 1, 1, 1]>, <13, 12, 13, 1, 0, 0, 0, [1, 1, 1, 1, 1, 1, 1, 1]>, <14, 13, 14, 1, 0, 0, 0, [1, 1, 1, 1, 1, 1, 1, 1]>, <15, 14, 15, 1, 0, 0, 0, [1, 1, 1, 1, 1, 1, 1, 1]>, <16, 15, 16, 1, 0, 0, 0, [1, 1, 1, 1, 1, 1, 1, 1]>, <17, 16, 17, 1, 0, 0, 0, [1, 1, 1, 1, 1, 1, 1, 1]>, <18, 17, 18, 1, 0, 0, 0, [1, 1, 1, 1, 1, 1, 1, 1]>, <19, 18, 19, 1, 0, 0, 0, [1, 1, 1, 1, 1, 1, 1, 1]>, <20, 19, 20, 1, 0, 0, 0, [1, 1, 1, 1, 1, 1, 1, 1]>, <21, 20, 21, 1, 0, 0, 0, [1, 1, 1, 1, 1, 1, 1, 1]>, <22, 21, 22, 1, 0, 0, 0, [1, 1, 1, 1, 1, 1, 1, 1]>, <23, 22, 23, 1, 0, 0, 0, [1, 1, 1, 1, 1, 1, 1, 1]>, <24, 23, 24, 1, 0, 0, 0, [1, 1, 1, 1, 1, 1, 1, 1]>, <25, 24, 25, 1, 0, 0, 0, [1, 1, 1, 1, 1, 1, 1, 1]>, <26, 25, 26, 1, 0, 0, 0, [1, 1, 1, 1, 1, 1, 1, 1]>, <27, 26, 27, 1, 0, 0, 0, [1, 1, 1, 1, 1, 1, 1, 1]>, <28, 27, 28, 1, 0, 0, 0, [1, 1, 1, 1, 1, 1, 1, 1]>, <29, 28, 29, 1, 0, 0, 0, [1, 1, 1, 1, 1, 1, 1, 1]>, <30, 0, 15, 15, 1, 0, 0, [1, 0, 0, 0, 0, 1, 1, 1]>, <31, 1, 16, 15, 1, 0, 0, [1, 0, 0, 0, 0, 1, 1, 1]>, <32, 2, 17, 15, 1, 0, 0, [1, 0, 0, 0, 0, 1, 1, 1]>, <33, 3, 18, 15, 1, 0, 0, [1, 0, 0, 0, 0, 1, 1, 1]>, <34, 4, 19, 15, 1, 0, 0, [1, 0, 0, 0, 0, 1, 1, 1]>, <35, 5, 20, 15, 1, 0, 0, [1, 0, 0, 0, 0, 1, 1, 1]>, <36, 6, 21, 15, 1, 0, 0, [1, 0, 0, 0, 0, 1, 1, 1]>, <37, 7, 22, 15, 1, 0, 0, [1, 0, 0, 0, 0, 1, 1, 1]>, <38, 8, 23, 15, 1, 0, 0, [1, 0, 0, 0, 0, 1, 1, 1]>, <39, 9, 24, 15, 1, 0, 0, [1, 0, 0, 0, 0, 1, 1, 1]>, <40, 10, 25, 15, 1, 0, 0, [1, 0, 0, 0, 0, 1, 1, 1]>, <41, 11, 26, 15, 1, 0, 0, [1, 0, 0, 0, 0, 1, 1, 1]>, <42, 12, 27, 15, 1, 0, 0, [1, 0, 0, 0, 0, 1, 1, 1]>, <43, 13, 28, 15, 1, 0, 0, [1, 0, 0, 0, 0, 1, 1, 1]>, <44, 14, 29, 15, 1, 0, 0, [1, 0, 0, 0, 0, 1, 1, 1]>, <45, 0, 17, 17, 2, 0, 1, [1, 1, 1, 0, 0, 0, 0, 1]>, <46, 1, 18, 17, 2, 0, 1, [1, 1, 1, 0, 0, 0, 0, 1]>, <47, 2, 19, 17, 2, 0, 1, [1, 1, 1, 0, 0, 0, 0, 1]>, <48, 3, 20, 17, 2, 0, 1, [1, 1, 1, 0, 0, 0, 0, 1]>, <49, 4, 21, 17, 2, 0, 1, [1, 1, 1, 0, 0, 0, 0, 1]>, <50, 5, 22, 17, 2, 0, 1, [1, 1, 1, 0, 0, 0, 0, 1]>, <51, 6, 23, 17, 2, 0, 1, [1, 1, 1, 0, 0, 0, 0, 1]>, <52, 7, 24, 17, 2, 0, 1, [1, 1, 1, 0, 0, 0, 0, 1]>, <53, 8, 25, 17, 2, 0, 1, [1, 1, 1, 0, 0, 0, 0, 1]>, <54, 9, 26, 17, 2, 0, 1, [1, 1, 1, 0, 0, 0, 0, 1]>, <55, 10, 27, 17, 2, 0, 1, [1, 1, 1, 0, 0, 0, 0, 1]>, <56, 11, 28, 17, 2, 0, 1, [1, 1, 1, 0, 0, 0, 0, 1]>, <57, 12, 29, 17, 2, 0, 1, [1, 1, 1, 0, 0, 0, 0, 1]>, <58, 0, 17, 17, 3, 0, 0, [0, 1, 1, 1, 1, 0, 0, 0]>, <59, 1, 18, 17, 3, 0, 0, [0, 1, 1, 1, 1, 0, 0, 0]>, <60, 2, 19, 17, 3, 0, 0, [0, 1, 1, 1, 1, 0, 0, 0]>, <61, 3, 20, 17, 3, 0, 0, [0, 1, 1, 1, 1, 0, 0, 0]>, <62, 4, 21, 17, 3, 0, 0, [0, 1, 1, 1, 1, 0, 0, 0]>, <63, 5, 22, 17, 3, 0, 0, [0, 1, 1, 1, 1, 0, 0, 0]>, <64, 6, 23, 17, 3, 0, 0, [0, 1, 1, 1, 1, 0, 0, 0]>, <65, 7, 24, 17, 3, 0, 0, [0, 1, 1, 1, 1, 0, 0, 0]>, <66, 8, 25, 17, 3, 0, 0, [0, 1, 1, 1, 1, 0, 0, 0]>, <67, 9, 26, 17, 3, 0, 0, [0, 1, 1, 1, 1, 0, 0, 0]>, <68, 10, 27, 17, 3, 0, 0, [0, 1, 1, 1, 1, 0, 0, 0]>, <69, 11, 28, 17, 3, 0, 0, [0, 1, 1, 1, 1, 0, 0, 0]>, <70, 12, 29, 17, 3, 0, 0, [0, 1, 1, 1, 1, 0, 0, 0]>, <71, 0, 14, 14, 4, 0, 0, [1, 1, 0, 0, 0, 0, 1, 1]>, <72, 1, 15, 14, 4, 0, 0, [1, 1, 0, 0, 0, 0, 1, 1]>, <73, 2, 16, 14, 4, 0, 0, [1, 1, 0, 0, 0, 0, 1, 1]>, <74, 3, 17, 14, 4, 0, 0, [1, 1, 0, 0, 0, 0, 1, 1]>, <75, 4, 18, 14, 4, 0, 0, [1, 1, 0, 0, 0, 0, 1, 1]>, <76, 5, 19, 14, 4, 0, 0, [1, 1, 0, 0, 0, 0, 1, 1]>, <77, 6, 20, 14, 4, 0, 0, [1, 1, 0, 0, 0, 0, 1, 1]>, <78, 7, 21, 14, 4, 0, 0, [1, 1, 0, 0, 0, 0, 1, 1]>, <79, 8, 22, 14, 4, 0, 0, [1, 1, 0, 0, 0, 0, 1, 1]>, <80, 9, 23, 14, 4, 0, 0, [1, 1, 0, 0, 0, 0, 1, 1]>, <81, 10, 24, 14, 4, 0, 0, [1, 1, 0, 0, 0, 0, 1, 1]>, <82, 11, 25, 14, 4, 0, 0, [1, 1, 0, 0, 0, 0, 1, 1]>, <83, 12, 26, 14, 4, 0, 0, [1, 1, 0, 0, 0, 0, 1, 1]>, <84, 13, 27, 14, 4, 0, 0, [1, 1, 0, 0, 0, 0, 1, 1]>, <85, 14, 28, 14, 4, 0, 0, [1, 1, 0, 0, 0, 0, 1, 1]>, <86, 15, 29, 14, 4, 0, 0, [1, 1, 0, 0, 0, 0, 1, 1]>, <87, 0, 14, 14, 5, 0, 1, [0, 1, 1, 1, 1, 0, 0, 0]>, <88, 1, 15, 14, 5, 0, 1, [0, 1, 1, 1, 1, 0, 0, 0]>, <89, 2, 16, 14, 5, 0, 1, [0, 1, 1, 1, 1, 0, 0, 0]>, <90, 3, 17, 14, 5, 0, 1, [0, 1, 1, 1, 1, 0, 0, 0]>, <91, 4, 18, 14, 5, 0, 1, [0, 1, 1, 1, 1, 0, 0, 0]>, <92, 5, 19, 14, 5, 0, 1, [0, 1, 1, 1, 1, 0, 0, 0]>, <93, 6, 20, 14, 5, 0, 1, [0, 1, 1, 1, 1, 0, 0, 0]>, <94, 7, 21, 14, 5, 0, 1, [0, 1, 1, 1, 1, 0, 0, 0]>, <95, 8, 22, 14, 5, 0, 1, [0, 1, 1, 1, 1, 0, 0, 0]>, <96, 9, 23, 14, 5, 0, 1, [0, 1, 1, 1, 1, 0, 0, 0]>, <97, 10, 24, 14, 5, 0, 1, [0, 1, 1, 1, 1, 0, 0, 0]>, <98, 11, 25, 14, 5, 0, 1, [0, 1, 1, 1, 1, 0, 0, 0]>, <99, 12, 26, 14, 5, 0, 1, [0, 1, 1, 1, 1, 0, 0, 0]>, <100, 13, 27, 14, 5, 0, 1, [0, 1, 1, 1, 1, 0, 0, 0]>, <101, 14, 28, 14, 5, 0, 1, [0, 1, 1, 1, 1, 0, 0, 0]>, <102, 15, 29, 14, 5, 0, 1, [0, 1, 1, 1, 1, 0, 0, 0]>, <103, 0, 13, 13, 6, 0, 1, [0, 0, 0, 0, 1, 1, 1, 1]>, <104, 1, 14, 13, 6, 0, 1, [0, 0, 0, 0, 1, 1, 1, 1]>, <105, 2, 15, 13, 6, 0, 1, [0, 0, 0, 0, 1, 1, 1, 1]>, <106, 3, 16, 13, 6, 0, 1, [0, 0, 0, 0, 1, 1, 1, 1]>, <107, 4, 17, 13, 6, 0, 1, [0, 0, 0, 0, 1, 1, 1, 1]>, <108, 5, 18, 13, 6, 0, 1, [0, 0, 0, 0, 1, 1, 1, 1]>, <109, 7, 20, 13, 6, 0, 1, [0, 0, 0, 0, 1, 1, 1, 1]>, <110, 8, 21, 13, 6, 0, 1, [0, 0, 0, 0, 1, 1, 1, 1]>, <111, 9, 22, 13, 6, 0, 1, [0, 0, 0, 0, 1, 1, 1, 1]>, <112, 10, 23, 13, 6, 0, 1, [0, 0, 0, 0, 1, 1, 1, 1]>, <113, 11, 24, 13, 6, 0, 1, [0, 0, 0, 0, 1, 1, 1, 1]>, <114, 12, 25, 13, 6, 0, 1, [0, 0, 0, 0, 1, 1, 1, 1]>, <115, 13, 26, 13, 6, 0, 1, [0, 0, 0, 0, 1, 1, 1, 1]>, <116, 14, 27, 13, 6, 0, 1, [0, 0, 0, 0, 1, 1, 1, 1]>, <117, 15, 28, 13, 6, 0, 1, [0, 0, 0, 0, 1, 1, 1, 1]>, <118, 16, 29, 13, 6, 0, 1, [0, 0, 0, 0, 1, 1, 1, 1]>, <119, 0, 14, 14, 7, 0, 1, [1, 1, 1, 1, 0, 0, 0, 0]>, <120, 1, 15, 14, 7, 0, 1, [1, 1, 1, 1, 0, 0, 0, 0]>, <121, 2, 16, 14, 7, 0, 1, [1, 1, 1, 1, 0, 0, 0, 0]>, <122, 3, 17, 14, 7, 0, 1, [1, 1, 1, 1, 0, 0, 0, 0]>, <123, 4, 18, 14, 7, 0, 1, [1, 1, 1, 1, 0, 0, 0, 0]>, <124, 5, 19, 14, 7, 0, 1, [1, 1, 1, 1, 0, 0, 0, 0]>, <125, 6, 20, 14, 7, 0, 1, [1, 1, 1, 1, 0, 0, 0, 0]>, <126, 7, 21, 14, 7, 0, 1, [1, 1, 1, 1, 0, 0, 0, 0]>, <127, 8, 22, 14, 7, 0, 1, [1, 1, 1, 1, 0, 0, 0, 0]>, <128, 9, 23, 14, 7, 0, 1, [1, 1, 1, 1, 0, 0, 0, 0]>, <129, 10, 24, 14, 7, 0, 1, [1, 1, 1, 1, 0, 0, 0, 0]>, <130, 11, 25, 14, 7, 0, 1, [1, 1, 1, 1, 0, 0, 0, 0]>, <131, 12, 26, 14, 7, 0, 1, [1, 1, 1, 1, 0, 0, 0, 0]>, <132, 13, 27, 14, 7, 0, 1, [1, 1, 1, 1, 0, 0, 0, 0]>, <133, 14, 28, 14, 7, 0, 1, [1, 1, 1, 1, 0, 0, 0, 0]>, <134, 15, 29, 14, 7, 0, 1, [1, 1, 1, 1, 0, 0, 0, 0]>, <135, 0, 17, 17, 8, 0, 0, [1, 0, 0, 0, 0, 1, 1, 1]>, <136, 1, 18, 17, 8, 0, 0, [1, 0, 0, 0, 0, 1, 1, 1]>, <137, 2, 19, 17, 8, 0, 0, [1, 0, 0, 0, 0, 1, 1, 1]>, <138, 3, 20, 17, 8, 0, 0, [1, 0, 0, 0, 0, 1, 1, 1]>, <139, 4, 21, 17, 8, 0, 0, [1, 0, 0, 0, 0, 1, 1, 1]>, <140, 5, 22, 17, 8, 0, 0, [1, 0, 0, 0, 0, 1, 1, 1]>, <141, 6, 23, 17, 8, 0, 0, [1, 0, 0, 0, 0, 1, 1, 1]>, <142, 7, 24, 17, 8, 0, 0, [1, 0, 0, 0, 0, 1, 1, 1]>, <143, 8, 25, 17, 8, 0, 0, [1, 0, 0, 0, 0, 1, 1, 1]>, <144, 9, 26, 17, 8, 0, 0, [1, 0, 0, 0, 0, 1, 1, 1]>, <145, 10, 27, 17, 8, 0, 0, [1, 0, 0, 0, 0, 1, 1, 1]>, <146, 11, 28, 17, 8, 0, 0, [1, 0, 0, 0, 0, 1, 1, 1]>, <147, 12, 29, 17, 8, 0, 0, [1, 0, 0, 0, 0, 1, 1, 1]>, <148, 0, 15, 15, 9, 0, 1, [1, 0, 0, 0, 0, 1, 1, 1]>, <149, 1, 16, 15, 9, 0, 1, [1, 0, 0, 0, 0, 1, 1, 1]>, <150, 2, 17, 15, 9, 0, 1, [1, 0, 0, 0, 0, 1, 1, 1]>, <151, 3, 18, 15, 9, 0, 1, [1, 0, 0, 0, 0, 1, 1, 1]>, <152, 4, 19, 15, 9, 0, 1, [1, 0, 0, 0, 0, 1, 1, 1]>, <153, 5, 20, 15, 9, 0, 1, [1, 0, 0, 0, 0, 1, 1, 1]>, <154, 6, 21, 15, 9, 0, 1, [1, 0, 0, 0, 0, 1, 1, 1]>, <155, 7, 22, 15, 9, 0, 1, [1, 0, 0, 0, 0, 1, 1, 1]>, <156, 8, 23, 15, 9, 0, 1, [1, 0, 0, 0, 0, 1, 1, 1]>, <157, 9, 24, 15, 9, 0, 1, [1, 0, 0, 0, 0, 1, 1, 1]>, <158, 10, 25, 15, 9, 0, 1, [1, 0, 0, 0, 0, 1, 1, 1]>, <159, 11, 26, 15, 9, 0, 1, [1, 0, 0, 0, 0, 1, 1, 1]>, <160, 12, 27, 15, 9, 0, 1, [1, 0, 0, 0, 0, 1, 1, 1]>, <161, 13, 28, 15, 9, 0, 1, [1, 0, 0, 0, 0, 1, 1, 1]>, <162, 14, 29, 15, 9, 0, 1, [1, 0, 0, 0, 0, 1, 1, 1]>, <163, 0, 14, 14, 10, 0, 1, [0, 0, 0, 1, 1, 1, 1, 0]>, <164, 1, 15, 14, 10, 0, 1, [0, 0, 0, 1, 1, 1, 1, 0]>, <165, 2, 16, 14, 10, 0, 1, [0, 0, 0, 1, 1, 1, 1, 0]>, <166, 3, 17, 14, 10, 0, 1, [0, 0, 0, 1, 1, 1, 1, 0]>, <167, 4, 18, 14, 10, 0, 1, [0, 0, 0, 1, 1, 1, 1, 0]>, <168, 5, 19, 14, 10, 0, 1, [0, 0, 0, 1, 1, 1, 1, 0]>, <169, 6, 20, 14, 10, 0, 1, [0, 0, 0, 1, 1, 1, 1, 0]>, <170, 7, 21, 14, 10, 0, 1, [0, 0, 0, 1, 1, 1, 1, 0]>, <171, 8, 22, 14, 10, 0, 1, [0, 0, 0, 1, 1, 1, 1, 0]>, <172, 9, 23, 14, 10, 0, 1, [0, 0, 0, 1, 1, 1, 1, 0]>, <173, 10, 24, 14, 10, 0, 1, [0, 0, 0, 1, 1, 1, 1, 0]>, <174, 11, 25, 14, 10, 0, 1, [0, 0, 0, 1, 1, 1, 1, 0]>, <175, 12, 26, 14, 10, 0, 1, [0, 0, 0, 1, 1, 1, 1, 0]>, <176, 13, 27, 14, 10, 0, 1, [0, 0, 0, 1, 1, 1, 1, 0]>, <177, 14, 28, 14, 10, 0, 1, [0, 0, 0, 1, 1, 1, 1, 0]>, <178, 15, 29, 14, 10, 0, 1, [0, 0, 0, 1, 1, 1, 1, 0]>, <179, 0, 15, 15, 11, 1, 0, [1, 1, 1, 1, 0, 0, 0, 0]>, <180, 1, 16, 15, 11, 1, 0, [1, 1, 1, 1, 0, 0, 0, 0]>, <181, 2, 17, 15, 11, 1, 0, [1, 1, 1, 1, 0, 0, 0, 0]>, <182, 3, 18, 15, 11, 1, 0, [1, 1, 1, 1, 0, 0, 0, 0]>, <183, 4, 19, 15, 11, 1, 0, [1, 1, 1, 1, 0, 0, 0, 0]>, <184, 5, 20, 15, 11, 1, 0, [1, 1, 1, 1, 0, 0, 0, 0]>, <185, 6, 21, 15, 11, 1, 0, [1, 1, 1, 1, 0, 0, 0, 0]>, <186, 7, 22, 15, 11, 1, 0, [1, 1, 1, 1, 0, 0, 0, 0]>, <187, 8, 23, 15, 11, 1, 0, [1, 1, 1, 1, 0, 0, 0, 0]>, <188, 9, 24, 15, 11, 1, 0, [1, 1, 1, 1, 0, 0, 0, 0]>, <189, 10, 25, 15, 11, 1, 0, [1, 1, 1, 1, 0, 0, 0, 0]>, <190, 11, 26, 15, 11, 1, 0, [1, 1, 1, 1, 0, 0, 0, 0]>, <191, 12, 27, 15, 11, 1, 0, [1, 1, 1, 1, 0, 0, 0, 0]>, <192, 13, 28, 15, 11, 1, 0, [1, 1, 1, 1, 0, 0, 0, 0]>, <193, 14, 29, 15, 11, 1, 0, [1, 1, 1, 1, 0, 0, 0, 0]>, <194, 0, 18, 18, 12, 1, 0, [1, 1, 0, 0, 0, 0, 1, 1]>, <195, 1, 19, 18, 12, 1, 0, [1, 1, 0, 0, 0, 0, 1, 1]>, <196, 2, 20, 18, 12, 1, 0, [1, 1, 0, 0, 0, 0, 1, 1]>, <197, 3, 21, 18, 12, 1, 0, [1, 1, 0, 0, 0, 0, 1, 1]>, <198, 4, 22, 18, 12, 1, 0, [1, 1, 0, 0, 0, 0, 1, 1]>, <199, 5, 23, 18, 12, 1, 0, [1, 1, 0, 0, 0, 0, 1, 1]>, <200, 6, 24, 18, 12, 1, 0, [1, 1, 0, 0, 0, 0, 1, 1]>, <201, 7, 25, 18, 12, 1, 0, [1, 1, 0, 0, 0, 0, 1, 1]>, <202, 8, 26, 18, 12, 1, 0, [1, 1, 0, 0, 0, 0, 1, 1]>, <203, 9, 27, 18, 12, 1, 0, [1, 1, 0, 0, 0, 0, 1, 1]>, <204, 10, 28, 18, 12, 1, 0, [1, 1, 0, 0, 0, 0, 1, 1]>, <205, 11, 29, 18, 12, 1, 0, [1, 1, 0, 0, 0, 0, 1, 1]>, <206, 0, 14, 14, 13, 0, 0, [1, 1, 1, 0, 0, 0, 0, 1]>, <207, 1, 15, 14, 13, 0, 0, [1, 1, 1, 0, 0, 0, 0, 1]>, <208, 2, 16, 14, 13, 0, 0, [1, 1, 1, 0, 0, 0, 0, 1]>, <209, 3, 17, 14, 13, 0, 0, [1, 1, 1, 0, 0, 0, 0, 1]>, <210, 4, 18, 14, 13, 0, 0, [1, 1, 1, 0, 0, 0, 0, 1]>, <211, 5, 19, 14, 13, 0, 0, [1, 1, 1, 0, 0, 0, 0, 1]>, <212, 6, 20, 14, 13, 0, 0, [1, 1, 1, 0, 0, 0, 0, 1]>, <213, 7, 21, 14, 13, 0, 0, [1, 1, 1, 0, 0, 0, 0, 1]>, <214, 8, 22, 14, 13, 0, 0, [1, 1, 1, 0, 0, 0, 0, 1]>, <215, 9, 23, 14, 13, 0, 0, [1, 1, 1, 0, 0, 0, 0, 1]>, <216, 10, 24, 14, 13, 0, 0, [1, 1, 1, 0, 0, 0, 0, 1]>, <217, 11, 25, 14, 13, 0, 0, [1, 1, 1, 0, 0, 0, 0, 1]>, <218, 12, 26, 14, 13, 0, 0, [1, 1, 1, 0, 0, 0, 0, 1]>, <219, 13, 27, 14, 13, 0, 0, [1, 1, 1, 0, 0, 0, 0, 1]>, <220, 14, 28, 14, 13, 0, 0, [1, 1, 1, 0, 0, 0, 0, 1]>, <221, 15, 29, 14, 13, 0, 0, [1, 1, 1, 0, 0, 0, 0, 1]>, <222, 0, 13, 13, 14, 0, 0, [0, 0, 0, 1, 1, 1, 1, 0]>, <223, 1, 14, 13, 14, 0, 0, [0, 0, 0, 1, 1, 1, 1, 0]>, <224, 2, 15, 13, 14, 0, 0, [0, 0, 0, 1, 1, 1, 1, 0]>, <225, 3, 16, 13, 14, 0, 0, [0, 0, 0, 1, 1, 1, 1, 0]>, <226, 4, 17, 13, 14, 0, 0, [0, 0, 0, 1, 1, 1, 1, 0]>, <227, 5, 18, 13, 14, 0, 0, [0, 0, 0, 1, 1, 1, 1, 0]>, <228, 7, 20, 13, 14, 0, 0, [0, 0, 0, 1, 1, 1, 1, 0]>, <229, 8, 21, 13, 14, 0, 0, [0, 0, 0, 1, 1, 1, 1, 0]>, <230, 9, 22, 13, 14, 0, 0, [0, 0, 0, 1, 1, 1, 1, 0]>, <231, 10, 23, 13, 14, 0, 0, [0, 0, 0, 1, 1, 1, 1, 0]>, <232, 11, 24, 13, 14, 0, 0, [0, 0, 0, 1, 1, 1, 1, 0]>, <233, 12, 25, 13, 14, 0, 0, [0, 0, 0, 1, 1, 1, 1, 0]>, <234, 13, 26, 13, 14, 0, 0, [0, 0, 0, 1, 1, 1, 1, 0]>, <235, 14, 27, 13, 14, 0, 0, [0, 0, 0, 1, 1, 1, 1, 0]>, <236, 15, 28, 13, 14, 0, 0, [0, 0, 0, 1, 1, 1, 1, 0]>, <237, 16, 29, 13, 14, 0, 0, [0, 0, 0, 1, 1, 1, 1, 0]>, <238, 0, 17, 17, 15, 0, 0, [0, 0, 0, 0, 1, 1, 1, 1]>, <239, 1, 18, 17, 15, 0, 0, [0, 0, 0, 0, 1, 1, 1, 1]>, <240, 2, 19, 17, 15, 0, 0, [0, 0, 0, 0, 1, 1, 1, 1]>, <241, 3, 20, 17, 15, 0, 0, [0, 0, 0, 0, 1, 1, 1, 1]>, <242, 4, 21, 17, 15, 0, 0, [0, 0, 0, 0, 1, 1, 1, 1]>, <243, 5, 22, 17, 15, 0, 0, [0, 0, 0, 0, 1, 1, 1, 1]>, <244, 6, 23, 17, 15, 0, 0, [0, 0, 0, 0, 1, 1, 1, 1]>, <245, 7, 24, 17, 15, 0, 0, [0, 0, 0, 0, 1, 1, 1, 1]>, <246, 8, 25, 17, 15, 0, 0, [0, 0, 0, 0, 1, 1, 1, 1]>, <247, 9, 26, 17, 15, 0, 0, [0, 0, 0, 0, 1, 1, 1, 1]>, <248, 10, 27, 17, 15, 0, 0, [0, 0, 0, 0, 1, 1, 1, 1]>, <249, 11, 28, 17, 15, 0, 0, [0, 0, 0, 0, 1, 1, 1, 1]>, <250, 12, 29, 17, 15, 0, 0, [0, 0, 0, 0, 1, 1, 1, 1]>, <251, 0, 15, 15, 16, 0, 1, [1, 0, 0, 0, 0, 1, 1, 1]>, <252, 1, 16, 15, 16, 0, 1, [1, 0, 0, 0, 0, 1, 1, 1]>, <253, 2, 17, 15, 16, 0, 1, [1, 0, 0, 0, 0, 1, 1, 1]>, <254, 3, 18, 15, 16, 0, 1, [1, 0, 0, 0, 0, 1, 1, 1]>, <255, 4, 19, 15, 16, 0, 1, [1, 0, 0, 0, 0, 1, 1, 1]>, <256, 5, 20, 15, 16, 0, 1, [1, 0, 0, 0, 0, 1, 1, 1]>, <257, 6, 21, 15, 16, 0, 1, [1, 0, 0, 0, 0, 1, 1, 1]>, <258, 7, 22, 15, 16, 0, 1, [1, 0, 0, 0, 0, 1, 1, 1]>, <259, 8, 23, 15, 16, 0, 1, [1, 0, 0, 0, 0, 1, 1, 1]>, <260, 9, 24, 15, 16, 0, 1, [1, 0, 0, 0, 0, 1, 1, 1]>, <261, 10, 25, 15, 16, 0, 1, [1, 0, 0, 0, 0, 1, 1, 1]>, <262, 11, 26, 15, 16, 0, 1, [1, 0, 0, 0, 0, 1, 1, 1]>, <263, 12, 27, 15, 16, 0, 1, [1, 0, 0, 0, 0, 1, 1, 1]>, <264, 13, 28, 15, 16, 0, 1, [1, 0, 0, 0, 0, 1, 1, 1]>, <265, 14, 29, 15, 16, 0, 1, [1, 0, 0, 0, 0, 1, 1, 1]>, <266, 0, 16, 16, 17, 0, 0, [0, 0, 0, 0, 1, 1, 1, 1]>, <267, 1, 17, 16, 17, 0, 0, [0, 0, 0, 0, 1, 1, 1, 1]>, <268, 2, 18, 16, 17, 0, 0, [0, 0, 0, 0, 1, 1, 1, 1]>, <269, 3, 19, 16, 17, 0, 0, [0, 0, 0, 0, 1, 1, 1, 1]>, <270, 4, 20, 16, 17, 0, 0, [0, 0, 0, 0, 1, 1, 1, 1]>, <271, 5, 21, 16, 17, 0, 0, [0, 0, 0, 0, 1, 1, 1, 1]>, <272, 6, 22, 16, 17, 0, 0, [0, 0, 0, 0, 1, 1, 1, 1]>, <273, 7, 23, 16, 17, 0, 0, [0, 0, 0, 0, 1, 1, 1, 1]>, <274, 8, 24, 16, 17, 0, 0, [0, 0, 0, 0, 1, 1, 1, 1]>, <275, 9, 25, 16, 17, 0, 0, [0, 0, 0, 0, 1, 1, 1, 1]>, <276, 10, 26, 16, 17, 0, 0, [0, 0, 0, 0, 1, 1, 1, 1]>, <277, 11, 27, 16, 17, 0, 0, [0, 0, 0, 0, 1, 1, 1, 1]>, <278, 12, 28, 16, 17, 0, 0, [0, 0, 0, 0, 1, 1, 1, 1]>, <279, 13, 29, 16, 17, 0, 0, [0, 0, 0, 0, 1, 1, 1, 1]>, <280, 0, 13, 13, 18, 1, 0, [1, 1, 0, 0, 0, 0, 1, 1]>, <281, 1, 14, 13, 18, 1, 0, [1, 1, 0, 0, 0, 0, 1, 1]>, <282, 2, 15, 13, 18, 1, 0, [1, 1, 0, 0, 0, 0, 1, 1]>, <283, 3, 16, 13, 18, 1, 0, [1, 1, 0, 0, 0, 0, 1, 1]>, <284, 4, 17, 13, 18, 1, 0, [1, 1, 0, 0, 0, 0, 1, 1]>, <285, 5, 18, 13, 18, 1, 0, [1, 1, 0, 0, 0, 0, 1, 1]>, <286, 7, 20, 13, 18, 1, 0, [1, 1, 0, 0, 0, 0, 1, 1]>, <287, 8, 21, 13, 18, 1, 0, [1, 1, 0, 0, 0, 0, 1, 1]>, <288, 9, 22, 13, 18, 1, 0, [1, 1, 0, 0, 0, 0, 1, 1]>, <289, 10, 23, 13, 18, 1, 0, [1, 1, 0, 0, 0, 0, 1, 1]>, <290, 11, 24, 13, 18, 1, 0, [1, 1, 0, 0, 0, 0, 1, 1]>, <291, 12, 25, 13, 18, 1, 0, [1, 1, 0, 0, 0, 0, 1, 1]>, <292, 13, 26, 13, 18, 1, 0, [1, 1, 0, 0, 0, 0, 1, 1]>, <293, 14, 27, 13, 18, 1, 0, [1, 1, 0, 0, 0, 0, 1, 1]>, <294, 15, 28, 13, 18, 1, 0, [1, 1, 0, 0, 0, 0, 1, 1]>, <295, 16, 29, 13, 18, 1, 0, [1, 1, 0, 0, 0, 0, 1, 1]>, <296, 0, 15, 15, 19, 0, 1, [1, 0, 0, 0, 0, 1, 1, 1]>, <297, 1, 16, 15, 19, 0, 1, [1, 0, 0, 0, 0, 1, 1, 1]>, <298, 2, 17, 15, 19, 0, 1, [1, 0, 0, 0, 0, 1, 1, 1]>, <299, 3, 18, 15, 19, 0, 1, [1, 0, 0, 0, 0, 1, 1, 1]>, <300, 4, 19, 15, 19, 0, 1, [1, 0, 0, 0, 0, 1, 1, 1]>, <301, 5, 20, 15, 19, 0, 1, [1, 0, 0, 0, 0, 1, 1, 1]>, <302, 6, 21, 15, 19, 0, 1, [1, 0, 0, 0, 0, 1, 1, 1]>, <303, 7, 22, 15, 19, 0, 1, [1, 0, 0, 0, 0, 1, 1, 1]>, <304, 8, 23, 15, 19, 0, 1, [1, 0, 0, 0, 0, 1, 1, 1]>, <305, 9, 24, 15, 19, 0, 1, [1, 0, 0, 0, 0, 1, 1, 1]>, <306, 10, 25, 15, 19, 0, 1, [1, 0, 0, 0, 0, 1, 1, 1]>, <307, 11, 26, 15, 19, 0, 1, [1, 0, 0, 0, 0, 1, 1, 1]>, <308, 12, 27, 15, 19, 0, 1, [1, 0, 0, 0, 0, 1, 1, 1]>, <309, 13, 28, 15, 19, 0, 1, [1, 0, 0, 0, 0, 1, 1, 1]>, <310, 14, 29, 15, 19, 0, 1, [1, 0, 0, 0, 0, 1, 1, 1]>, <311, 0, 17, 17, 20, 1, 0, [0, 0, 1, 1, 1, 1, 0, 0]>, <312, 1, 18, 17, 20, 1, 0, [0, 0, 1, 1, 1, 1, 0, 0]>, <313, 2, 19, 17, 20, 1, 0, [0, 0, 1, 1, 1, 1, 0, 0]>, <314, 3, 20, 17, 20, 1, 0, [0, 0, 1, 1, 1, 1, 0, 0]>, <315, 4, 21, 17, 20, 1, 0, [0, 0, 1, 1, 1, 1, 0, 0]>, <316, 5, 22, 17, 20, 1, 0, [0, 0, 1, 1, 1, 1, 0, 0]>, <317, 6, 23, 17, 20, 1, 0, [0, 0, 1, 1, 1, 1, 0, 0]>, <318, 7, 24, 17, 20, 1, 0, [0, 0, 1, 1, 1, 1, 0, 0]>, <319, 8, 25, 17, 20, 1, 0, [0, 0, 1, 1, 1, 1, 0, 0]>, <320, 9, 26, 17, 20, 1, 0, [0, 0, 1, 1, 1, 1, 0, 0]>, <321, 10, 27, 17, 20, 1, 0, [0, 0, 1, 1, 1, 1, 0, 0]>, <322, 11, 28, 17, 20, 1, 0, [0, 0, 1, 1, 1, 1, 0, 0]>, <323, 12, 29, 17, 20, 1, 0, [0, 0, 1, 1, 1, 1, 0, 0]>, <324, 0, 18, 18, 21, 0, 1, [0, 0, 0, 1, 1, 1, 1, 0]>, <325, 1, 19, 18, 21, 0, 1, [0, 0, 0, 1, 1, 1, 1, 0]>, <326, 2, 20, 18, 21, 0, 1, [0, 0, 0, 1, 1, 1, 1, 0]>, <327, 3, 21, 18, 21, 0, 1, [0, 0, 0, 1, 1, 1, 1, 0]>, <328, 4, 22, 18, 21, 0, 1, [0, 0, 0, 1, 1, 1, 1, 0]>, <329, 5, 23, 18, 21, 0, 1, [0, 0, 0, 1, 1, 1, 1, 0]>, <330, 6, 24, 18, 21, 0, 1, [0, 0, 0, 1, 1, 1, 1, 0]>, <331, 7, 25, 18, 21, 0, 1, [0, 0, 0, 1, 1, 1, 1, 0]>, <332, 8, 26, 18, 21, 0, 1, [0, 0, 0, 1, 1, 1, 1, 0]>, <333, 9, 27, 18, 21, 0, 1, [0, 0, 0, 1, 1, 1, 1, 0]>, <334, 10, 28, 18, 21, 0, 1, [0, 0, 0, 1, 1, 1, 1, 0]>, <335, 11, 29, 18, 21, 0, 1, [0, 0, 0, 1, 1, 1, 1, 0]>};
